
Gurobi 11.0.0 (win64) logging started Sat Jun 15 09:52:38 2024

Set parameter LogFile to value "./GurobiLog/stage_3_iter_10.log"
Gurobi Optimizer version 11.0.0 build v11.0.0rc2 (win64 - Windows 10.0 (18363.2))

CPU model: Intel(R) Core(TM) i7-8700 CPU @ 3.20GHz, instruction set [SSE2|AVX|AVX2]
Thread count: 6 physical cores, 12 logical processors, using up to 1 threads

Optimize a model with 1065 rows, 10910 columns and 18470 nonzeros
Coefficient statistics:
  Matrix range     [1e+00, 4e+01]
  Objective range  [2e+00, 2e+05]
  Bounds range     [2e-01, 1e+04]
  RHS range        [1e+00, 3e+04]
LP warm-start: use basis
Iteration    Objective       Primal Inf.    Dual Inf.      Time
       0   -5.5201969e+03   5.827504e+03   0.000000e+00      0s
     125    8.6364247e+03   0.000000e+00   0.000000e+00      0s

Solved in 125 iterations and 0.01 seconds (0.00 work units)
Optimal objective  8.636424704e+03

Gurobi 11.0.0 (win64) logging started Sat Jun 15 10:50:59 2024

Set parameter LogFile to value "./GurobiLog/stage_3_iter_10.log"
Gurobi Optimizer version 11.0.0 build v11.0.0rc2 (win64 - Windows 10.0 (18363.2))

CPU model: Intel(R) Core(TM) i7-8700 CPU @ 3.20GHz, instruction set [SSE2|AVX|AVX2]
Thread count: 6 physical cores, 12 logical processors, using up to 1 threads

Optimize a model with 1065 rows, 10910 columns and 18470 nonzeros
Coefficient statistics:
  Matrix range     [1e+00, 4e+01]
  Objective range  [2e+00, 2e+05]
  Bounds range     [4e-03, 7e+03]
  RHS range        [1e+00, 3e+04]
LP warm-start: use basis
Iteration    Objective       Primal Inf.    Dual Inf.      Time
       0    5.9961600e+03   9.923221e+02   0.000000e+00      0s
     243    1.0710252e+04   0.000000e+00   0.000000e+00      0s

Solved in 243 iterations and 0.01 seconds (0.01 work units)
Optimal objective  1.071025218e+04
